\ This file has been generated by DOcplex
\ ENCODING=ISO-8859-1
\Problem name: BMW

Minimize
 obj: x_1_1 + x_3_1 + x_1_4 + x_3_4
Subject To
 c1: x_1_1 + x_3_1 + x_1_4 + x_3_4 = 1
 c2: x_1_1 + x_3_1 + x_1_4 + x_3_4 = 1

Bounds
 0 <= x_1_1 <= 1
 0 <= x_3_1 <= 1
 0 <= x_1_4 <= 1
 0 <= x_3_4 <= 1

Binaries
 x_1_1 x_3_1 x_1_4 x_3_4
End
